Problem:    
Rows:       260
Columns:    89 (72 integer, 72 binary)
Non-zeros:  974
Status:     INTEGER OPTIMAL
Objective:  value = 81.090805 (MINimum)

   No.   Row name        Activity     Lower bound   Upper bound
------ ------------    ------------- ------------- -------------
     1 r.5                   1081.09             0               
     2 r.6                   -977.71      -980.852               
     3 r.7                   81.0908             0               
     4 r.8                   41.2259      -961.797               
     5 r.9                   1081.09             0               
     6 r.10                  -958.17       -980.93               
     7 r.11                  81.0908             0               
     8 r.12                  41.8302      -961.255               
     9 r.13                  81.0908             0               
    10 r.14                  41.2356       -998.21               
    11 r.15                  1081.09             0               
    12 r.16                 -959.695      -994.996               
    13 r.17                  81.0908             0               
    14 r.18                  42.3003      -995.805               
    15 r.19                  1081.09             0               
    16 r.20                 -965.159      -992.204               
    17 r.21                  81.0908             0               
    18 r.22                  -987.79      -990.932               
    19 r.23                  1081.09             0               
    20 r.24                 -977.887      -981.029               
    21 r.25                  1081.09             0               
    22 r.26                 -998.268      -998.268               
    23 r.27                  81.0908             0               
    24 r.28                   4.5235      -996.364               
    25 r.29                  1081.09             0               
    26 r.30                 -918.909      -960.739               
    27 r.31                  81.0908             0               
    28 r.32                  81.0908      -958.513               
    29 r.33                  81.0908             0               
    30 r.34                  81.0908      -962.133               
    31 r.35                  1081.09             0               
    32 r.36                 -918.909      -959.675               
    33 r.37                        1             1             = 
    34 r.38                        1             1             = 
    35 r.39                        1             1             = 
    36 r.40                        1             1             = 
    37 r.41                        1             1             = 
    38 r.42                        1             1             = 
    39 r.43                        1             1             = 
    40 r.44                        1             1             = 
    41 r.45                        2             2               
    42 r.46                       -2         -1001               
    43 r.47                  -980.93       -980.93               
    44 r.48                     1000             2               
    45 r.49                    -1000         -1001               
    46 r.50                  2001.06      -961.255               
    47 r.51                     1001             2               
    48 r.52                    -1001         -1001               
    49 r.53                  2018.48       -998.21               
    50 r.54                     1001             2               
    51 r.55                    -1001         -1001               
    52 r.56                  1999.54      -994.996               
    53 r.57                     1001             2               
    54 r.58                    -1001         -1001               
    55 r.59                  2019.54      -995.805               
    56 r.60                     1001             2               
    57 r.61                    -1001         -1001               
    58 r.62                  1994.08      -992.204               
    59 r.63                     1001             2               
    60 r.64                    -1001         -1001               
    61 r.65                   989.45      -990.932               
    62 r.66                     1001             2               
    63 r.67                    -1001         -1001               
    64 r.68                  1981.35      -981.029               
    65 r.69                 -980.852      -980.852               
    66 r.70                  38.0836      -961.797               
    67 r.71                 -980.852      -980.852               
    68 r.72                  38.0836      -961.797               
    69 r.73                 -941.669      -960.739               
    70 r.74                  58.3308      -958.513               
    71 r.75                 -959.675      -960.739               
    72 r.76                  40.3253      -958.513               
    73 r.77                  58.3308      -962.133               
    74 r.78                 -941.669      -959.675               
    75 r.79                  40.3253      -962.133               
    76 r.80                 -959.675      -959.675               
    77 r.81                        2             2               
    78 r.82                       -2         -1001               
    79 r.83                   980.46       19.1476               
    80 r.84                     1000             2               
    81 r.85                    -1000         -1001               
    82 r.86                   1999.4       38.2031               
    83 r.87                     1001             2               
    84 r.88                    -1001         -1001               
    85 r.89                  1999.41       -998.21               
    86 r.90                     1001             2               
    87 r.91                    -1001         -1001               
    88 r.92                  1998.47      -994.996               
    89 r.93                     1001             2               
    90 r.94                    -1001         -1001               
    91 r.95                  2000.47      -995.805               
    92 r.96                     1001             2               
    93 r.97                    -1001         -1001               
    94 r.98                  1993.01      -992.204               
    95 r.99                     1001             2               
    96 r.100                   -1001         -1001               
    97 r.101                  970.38      -990.932               
    98 r.102                    1001             2               
    99 r.103                   -1001         -1001               
   100 r.104                 1980.28      -981.029               
   101 r.105                -961.312       -980.93               
   102 r.106                 38.6879      -961.255               
   103 r.107                -961.312       -980.93               
   104 r.108                 38.6879      -961.255               
   105 r.109                -960.739      -960.739               
   106 r.110                 39.2606      -958.513               
   107 r.111                -960.739      -960.739               
   108 r.112                 39.2606      -958.513               
   109 r.113                    1001             2               
   110 r.114                   -1001         -1001               
   111 r.115                 2039.26      -962.133               
   112 r.116                    1001             2               
   113 r.117                   -1001         -1001               
   114 r.118                 2039.26      -959.675               
   115 r.119                    1001             2               
   116 r.120                   -1001         -1001               
   117 r.121                 1981.52       19.1476               
   118 r.122                    1001             2               
   119 r.123                   -1001         -1001               
   120 r.124                 2000.46       38.2031               
   121 r.125                    1001             2               
   122 r.126                   -1001         -1001               
   123 r.127                 2001.06       19.0702               
   124 r.128                    1001             2               
   125 r.129                   -1001         -1001               
   126 r.130                 2001.06       38.7447               
   127 r.131                    1000             2               
   128 r.132                   -1000         -1001               
   129 r.133                 2001.53      -995.805               
   130 r.134                       2             2               
   131 r.135                      -2         -1001               
   132 r.136                -5.92474      -992.204               
   133 r.137                    1000             2               
   134 r.138                   -1000         -1001               
   135 r.139                 971.445      -990.932               
   136 r.140                       2             2               
   137 r.141                      -2         -1001               
   138 r.142                -18.6521      -981.029               
   139 r.143                 38.0934       -998.21               
   140 r.144                -962.837      -994.996               
   141 r.145                 38.0934       -998.21               
   142 r.146                -962.837      -994.996               
   143 r.147                -959.675      -960.739               
   144 r.148                 40.3253      -958.513               
   145 r.149                -959.675      -960.739               
   146 r.150                 40.3253      -958.513               
   147 r.151                 40.3253      -962.133               
   148 r.152                -959.675      -959.675               
   149 r.153                 40.3253      -962.133               
   150 r.154                -959.675      -959.675               
   151 r.155                    1001             2               
   152 r.156                   -1001         -1001               
   153 r.157                 1980.46       19.1476               
   154 r.158                    1001             2               
   155 r.159                   -1001         -1001               
   156 r.160                 2005.92       38.2031               
   157 r.161                    1001             2               
   158 r.162                   -1001         -1001               
   159 r.163                    2000       19.0702               
   160 r.164                    1001             2               
   161 r.165                   -1001         -1001               
   162 r.166                 2006.53       38.7447               
   163 r.167                    1000             2               
   164 r.168                   -1000         -1001               
   165 r.169                 1999.41        1.7897               
   166 r.170                       2             2               
   167 r.171                      -2         -1001               
   168 r.172                 5.00392       5.00392               
   169 r.173                    1000             2               
   170 r.174                   -1000         -1001               
   171 r.175                  970.38      -990.932               
   172 r.176                       2             2               
   173 r.177                      -2         -1001               
   174 r.178                -13.1878      -981.029               
   175 r.179                 39.1581      -995.805               
   176 r.180                -968.302      -992.204               
   177 r.181                 39.1581      -995.805               
   178 r.182                -968.302      -992.204               
   179 r.183                -960.739      -960.739               
   180 r.184                 39.2606      -958.513               
   181 r.185                 -954.21      -960.739               
   182 r.186                 45.7896      -958.513               
   183 r.187                    1000             2               
   184 r.188                   -1000         -1001               
   185 r.189                 2039.26      -962.133               
   186 r.190                       2             2               
   187 r.191                      -2         -1001               
   188 r.192                 -954.21      -959.675               
   189 r.193                    1001             2               
   190 r.194                   -1001         -1001               
   191 r.195                 3010.08       19.1476               
   192 r.196                    1001             2               
   193 r.197                   -1001         -1001               
   194 r.198                 2019.11       38.2031               
   195 r.199                    1001             2               
   196 r.200                   -1001         -1001               
   197 r.201                 3029.62       19.0702               
   198 r.202                    1001             2               
   199 r.203                   -1001         -1001               
   200 r.204                 2019.72       38.7447               
   201 r.205                    1000             2               
   202 r.206                   -1000         -1001               
   203 r.207                 3029.03        1.7897               
   204 r.208                       2             2               
   205 r.209                      -2         -1001               
   206 r.210                 18.1917       5.00392               
   207 r.211                    1000             2               
   208 r.212                   -1000         -1001               
   209 r.213                 3030.09       4.19541               
   210 r.214                       2             2               
   211 r.215                      -2         -1001               
   212 r.216                 12.7274       7.79618               
   213 r.217                -990.932      -990.932               
   214 r.218                -981.029      -981.029               
   215 r.219                -990.932      -990.932               
   216 r.220                -981.029      -981.029               
   217 r.221                    1001             2               
   218 r.222                   -1001         -1001               
   219 r.223                 3068.88      -960.739               
   220 r.224                    1001             2               
   221 r.225                   -1001         -1001               
   222 r.226                 2058.98      -958.513               
   223 r.227                 1068.88      -962.133               
   224 r.228                 68.8804      -959.675               
   225 r.229                 58.9774      -962.133               
   226 r.230                -941.023      -959.675               
   227 r.231                -922.051      -960.739               
   228 r.232                 77.9485      -958.513               
   229 r.233                -922.051      -960.739               
   230 r.234                 77.9485      -958.513               
   231 r.235                    1001             2               
   232 r.236                   -1001         -1001               
   233 r.237                  931.12       9.06809               
   234 r.238                    1001             2               
   235 r.239                   -1001         -1001               
   236 r.240                 1941.02       18.9711               
   237 r.241                    1001             2               
   238 r.242                   -1001         -1001               
   239 r.243                    2000      -962.133               
   240 r.244                    1001             2               
   241 r.245                   -1001         -1001               
   242 r.246                    2000      -959.675               
   243 r.247                    1001             2               
   244 r.248                   -1001         -1001               
   245 r.249                 1960.74       19.0702               
   246 r.250                    1001             2               
   247 r.251                   -1001         -1001               
   248 r.252                 1960.74       38.7447               
   249 r.253                    1000             2               
   250 r.254                   -1000         -1001               
   251 r.255                 1961.21       4.19541               
   252 r.256                       2             2               
   253 r.257                      -2         -1001               
   254 r.258                  953.75       7.79618               
   255 r.259                    1001             2               
   256 r.260                   -1001         -1001               
   257 r.261                    2000       39.2606               
   258 r.262                    1001             2               
   259 r.263                   -1001         -1001               
   260 r.264                    2000       41.4872               

   No. Column name       Activity     Lower bound   Upper bound
------ ------------    ------------- ------------- -------------
     1 tt                    81.0908             0               
     2 s_1_1        *              1             0             1 
     3 t_1_1                 58.3308             0               
     4 s_1_8        *              0             0             1 
     5 s_1_7        *              1             0             1 
     6 s_2_1        *              0             0             1 
     7 t_2_1                 40.3253             0               
     8 s_2_8        *              1             0             1 
     9 s_2_7        *              0             0             1 
    10 s_1_2        *              1             0             1 
    11 t_1_2                 39.2606             0               
    12 s_2_2        *              0             0             1 
    13 t_2_2                 39.2606             0               
    14 s_1_3        *              0             0             1 
    15 t_1_3                 40.3253             0               
    16 s_2_3        *              1             0             1 
    17 t_2_3                 40.3253             0               
    18 s_1_4        *              0             0             1 
    19 t_1_4                 39.2606             0               
    20 s_2_4        *              1             0             1 
    21 t_2_4                 45.7896             0               
    22 s_1_5        *              0             0             1 
    23 t_1_5                 1068.88             0               
    24 s_2_5        *              1             0             1 
    25 t_2_5                 58.9774             0               
    26 s_1_6        *              1             0             1 
    27 t_1_6                 77.9485             0               
    28 s_2_6        *              0             0             1 
    29 t_2_6                 77.9485             0               
    30 t_1_7                       0             0               
    31 t_2_7                       0             0               
    32 t_1_8                       0             0               
    33 t_2_8                       0             0               
    34 r_1_1_2      *              0             0             1 
    35 u_1_1_2      *              1             0             1 
    36 r_2_1_2      *              1             0             1 
    37 u_2_1_2      *              0             0             1 
    38 r_1_1_3      *              1             0             1 
    39 u_1_1_3      *              0             0             1 
    40 r_2_1_3      *              1             0             1 
    41 u_2_1_3      *              0             0             1 
    42 r_1_1_4      *              1             0             1 
    43 u_1_1_4      *              0             0             1 
    44 r_2_1_4      *              1             0             1 
    45 u_2_1_4      *              0             0             1 
    46 r_1_1_5      *              1             0             1 
    47 u_1_1_5      *              0             0             1 
    48 r_2_1_5      *              1             0             1 
    49 u_2_1_5      *              0             0             1 
    50 r_1_2_3      *              1             0             1 
    51 u_1_2_3      *              0             0             1 
    52 r_2_2_3      *              1             0             1 
    53 u_2_2_3      *              0             0             1 
    54 r_1_2_4      *              1             0             1 
    55 u_1_2_4      *              0             0             1 
    56 r_2_2_4      *              1             0             1 
    57 u_2_2_4      *              0             0             1 
    58 r_1_2_5      *              1             0             1 
    59 u_1_2_5      *              0             0             1 
    60 r_2_2_5      *              1             0             1 
    61 u_2_2_5      *              0             0             1 
    62 r_1_2_8      *              1             0             1 
    63 u_1_2_8      *              0             0             1 
    64 r_2_2_8      *              1             0             1 
    65 u_2_2_8      *              0             0             1 
    66 r_1_3_4      *              1             0             1 
    67 u_1_3_4      *              0             0             1 
    68 r_2_3_4      *              0             0             1 
    69 u_2_3_4      *              0             0             1 
    70 r_1_3_5      *              1             0             1 
    71 u_1_3_5      *              0             0             1 
    72 r_2_3_5      *              0             0             1 
    73 u_2_3_5      *              0             0             1 
    74 r_1_4_5      *              1             0             1 
    75 u_1_4_5      *              0             0             1 
    76 r_2_4_5      *              0             0             1 
    77 u_2_4_5      *              0             0             1 
    78 r_1_4_8      *              1             0             1 
    79 u_1_4_8      *              0             0             1 
    80 r_2_4_8      *              0             0             1 
    81 u_2_4_8      *              1             0             1 
    82 r_1_5_7      *              1             0             1 
    83 u_1_5_7      *              0             0             1 
    84 r_2_5_7      *              1             0             1 
    85 u_2_5_7      *              0             0             1 
    86 r_1_7_8      *              1             0             1 
    87 u_1_7_8      *              0             0             1 
    88 r_2_7_8      *              1             0             1 
    89 u_2_7_8      *              0             0             1 

Integer feasibility conditions:

KKT.PE: max.abs.err = 4.55e-13 on row 191
        max.rel.err = 1.10e-16 on row 194
        High quality

KKT.PB: max.abs.err = 4.44e-15 on row 168
        max.rel.err = 7.40e-16 on row 168
        High quality

End of output
